proyfinal/src/viki/013/andrea/andrea-localstore/experimentInOfficeAgust.take6/worker_2/475e3f5c-8a22-42ac-b815-f3e9cfe0dac6.als.cnf.out
Reading from standard input... Use '--help' for help.
============================[ Problem Statistics ]=============================
|                                                                             |
|  Number of variables:         87638                                         |
|  Number of clauses:          161767                                         |
|  Parse time:                   0.04 s                                       |
|                                                                             |
============================[ Search Statistics ]==============================
| Conflicts |          ORIGINAL         |          LEARNT          | Progress |
|           |    Vars  Clauses Literals |    Limit  Clauses Lit/Cl |          |
===============================================================================
|       100 |   63199   108090   270312 |    39633      100     15 | 27.886 % |
|       250 |   63199   108090   270312 |    43596      250     70 | 27.886 % |
|       475 |   63199   108090   270312 |    47955      475     65 | 27.886 % |
|       812 |   63199   108090   270312 |    52751      812     63 | 27.886 % |
|      1318 |   63151   107890   269854 |    58026     1309     66 | 27.941 % |
|      2077 |   63124   107703   269452 |    63829     1681     63 | 27.972 % |
|      3216 |   63124   107703   269452 |    70212     2820     93 | 27.972 % |
|      4924 |   47859    62861   159251 |    77233     4133     82 | 45.390 % |
|      7486 |   47551    61599   156193 |    84956     6493     65 | 45.742 % |
===============================================================================
restarts              : 46
conflicts             : 10893          (7229 /sec)
decisions             : 33397          (0.00 % random) (22164 /sec)
propagations          : 16246780       (10782421 /sec)
conflict literals     : 597729         (42.59 % deleted)
Memory used           : 32.40 MB
CPU time              : 1.50678 s

UNSATISFIABLE
